15 4 
5760	5760	5760	5760	
313	900	981	
845	126	132	
648	602	613	
753	849	933	
263	470	494	
653	249	262	
164	389	417	
738	279	294	
964	930	1019	
95	187	197	
125	648	674	
860	303	331	
528	566	617	
844	966	1016	
121	216	231	
